NAME : Min134-8-f.400125.tour
COMMENT : Length = 400125
COMMENT : Found by LKH-3 [Keld Helsgaun] Fri Jun  6 12:46:38 2025
TYPE : TOUR
DIMENSION : 150
TOUR_SECTION
34
30
16
29
14
31
23
25
28
20
35
12
17
19
18
33
13
26
54
37
71
72
62
61
64
56
70
73
59
60
21
24
15
32
27
22
11
36
10
9
129
130
121
138
120
131
118
119
126
128
133
132
124
137
140
117
127
135
116
136
142
139
141
123
125
122
50
49
93
95
39
53
38
48
46
42
44
52
51
47
65
43
41
40
45
144
3
145
4
146
5
90
97
92
96
58
69
67
68
74
66
63
55
57
75
76
88
83
81
84
85
80
86
78
82
98
89
94
99
115
111
101
91
105
113
104
106
112
102
114
103
107
108
109
134
110
147
6
148
7
87
77
79
100
149
8
150
1
143
2
-1
EOF
